c Output_time 26.03.2020 18:15:26_+0100 1585242926529871707
c ** Program information **
c program_name                          "QBRG_debug"
c version                               "0.3.20"
c date                                  "25.3.2020"
c gid_id                                "673970833836058123f633335630c185360d632e"
c author                                "Oliver Kullmann"
c url                                   "https://github.com/OKullmann/oklibrary/blob/master/Satisfiability/Transformers/Generators/Random/QBRG.cpp"
c ** Machine information **
c machine_name                          "chyna-Lenovo-G50-70"
c bogomips                              3791.08
c ** Compilation information **
c compiler_version                      "g++ 7.5.0"
c compilation_date                      "Mar_26_2020 11:16:30"
c compilation_options                   "--std=c++17 -pedantic -fmax-errors=5 -Wall -Wextra -g -D_GLIBCXX_DEBUG"
c NDEBUG                                0
c OPTIMIZE                              0
c ** Parameters **
c command-line                          "./QBRG_debug" "a40 e40 a40 40" "533*1,1|2-2,1|3-3,1|4-4,1" "" "1,t" ""
c output                                "QuBlRaGe_160_533_1585242926474799353.qdimacs"
c options                               "filtered,renamed"
c num_quantifier_blocks                 4
c  quantifier_blocks                    1:a1-40 2:e41-80 3:a81-120 4:e121-160
c num_clause-blocks                     1
c  clause-blocks                        533 * {1-40,1,1/2} | {41-80,1,1/2} | {81-120,1,1/2} | {121-160,1,1/2}
c num_e-seeds                           37+2=39
c  e-seeds                              1 0 1 0 5 160 2 40 0 40 1 40 0 40 1 533 4 1 1 1 1 2 2 2 1 1 2 3 3 1 1 2 4 4 1 1 2 1 1585242926474798448
p cnf 160 533
a 1 2 3 4 5 6 7 8 9 10 11 12 13 14 15 16 17 18 19 20 21 22 23 24 25 26 27 28 29 30 31 32 33 34 35 36 37 38 39 40 0
e 41 42 43 44 45 46 47 48 49 50 51 52 53 54 55 56 57 58 59 60 61 62 63 64 65 66 67 68 69 70 71 72 73 74 75 76 77 78 79 80 0
a 81 82 83 84 85 86 87 88 89 90 91 92 93 94 95 96 97 98 99 100 101 102 103 104 105 106 107 108 109 110 111 112 113 114 115 116 117 118 119 120 0
e 121 122 123 124 125 126 127 128 129 130 131 132 133 134 135 136 137 138 139 140 141 142 143 144 145 146 147 148 149 150 151 152 153 154 155 156 157 158 159 160 0
-10 46 -82 -121 0
13 -73 85 -121 0
4 75 91 -121 0
17 -76 -96 -121 0
-20 -66 109 -121 0
-24 -59 94 121 0
-40 61 97 121 0
-29 56 -85 -122 0
-14 -58 86 -122 0
-14 52 -98 -122 0
27 48 -101 -122 0
-8 66 106 -122 0
12 -53 -110 -122 0
24 -69 -114 -122 0
4 41 116 -122 0
4 -57 -117 -122 0
-18 -61 -118 -122 0
15 42 -94 122 0
13 -73 -114 122 0
18 -69 115 122 0
-2 -47 117 122 0
15 47 -82 -123 0
2 -75 96 -123 0
26 -51 -99 -123 0
-30 -80 99 -123 0
-2 51 -111 -123 0
-2 -55 -113 -123 0
17 49 85 123 0
-38 53 -98 123 0
-26 62 98 123 0
-19 -79 103 123 0
20 -57 104 123 0
16 56 -119 123 0
40 -64 86 -124 0
-25 -73 -95 -124 0
-34 80 -95 -124 0
12 46 -98 -124 0
-25 -42 -101 -124 0
4 -62 -104 -124 0
4 -56 110 -124 0
33 -46 -115 -124 0
18 -58 -116 -124 0
-1 46 117 -124 0
30 -66 -118 -124 0
-4 72 81 124 0
3 -61 -95 124 0
24 -70 112 124 0
20 -52 114 124 0
30 43 116 124 0
4 -75 118 124 0
-23 -68 81 -125 0
31 73 81 -125 0
-30 -45 -83 -125 0
-9 -66 83 -125 0
6 63 85 -125 0
-10 -49 -96 -125 0
4 73 96 -125 0
18 66 100 -125 0
-32 -47 -116 -125 0
6 -52 85 125 0
-8 -59 92 125 0
-31 -45 101 125 0
-8 -80 -103 125 0
-3 -64 -105 125 0
-20 71 107 125 0
24 42 85 -126 0
29 47 -94 -126 0
-26 -75 94 -126 0
26 71 -114 -126 0
35 -44 -84 126 0
38 77 -90 126 0
-32 -51 -91 126 0
11 66 -95 126 0
-12 68 102 126 0
14 49 114 126 0
24 50 -119 126 0
19 71 -84 -127 0
35 -60 85 -127 0
26 -50 88 -127 0
39 52 91 -127 0
-21 42 -97 -127 0
31 -79 -101 -127 0
3 -54 113 -127 0
-18 73 116 -127 0
28 -71 117 -127 0
26 -76 118 -127 0
-15 -43 -119 -127 0
-12 -60 -82 127 0
1 73 -82 127 0
-37 64 -86 127 0
15 67 -89 127 0
27 -47 94 127 0
2 43 104 127 0
-34 63 114 127 0
33 68 114 127 0
1 -77 86 -128 0
27 -79 87 -128 0
-21 -67 -89 -128 0
6 -69 96 -128 0
-1 -42 -101 -128 0
-39 -79 104 -128 0
-17 51 -106 -128 0
-35 -60 -110 -128 0
-23 60 -113 -128 0
-15 -52 -116 -128 0
-40 -42 -103 128 0
-16 58 -103 128 0
16 -78 -104 128 0
20 61 117 128 0
-9 -74 82 -129 0
33 -68 -87 -129 0
-29 48 -90 -129 0
27 43 101 -129 0
-25 48 104 -129 0
-1 55 105 -129 0
-20 -74 -81 129 0
-25 44 93 129 0
-31 -57 97 129 0
26 -58 -102 129 0
19 44 109 129 0
37 78 -82 -130 0
-9 -57 -86 -130 0
-9 54 86 -130 0
-23 -48 -106 -130 0
36 -46 -109 -130 0
27 47 -109 -130 0
-24 78 -117 -130 0
-6 -44 -89 130 0
4 66 -104 130 0
-32 43 -82 -131 0
40 -56 -82 -131 0
3 -48 87 -131 0
8 -45 102 -131 0
26 -75 103 -131 0
22 -53 106 -131 0
18 76 -119 -131 0
-36 -51 -102 131 0
-5 46 105 131 0
-5 49 106 131 0
-7 -65 -107 131 0
-36 71 -108 131 0
8 70 88 -132 0
-4 52 -101 -132 0
15 60 104 -132 0
-4 41 -113 -132 0
26 -78 81 132 0
-9 42 -85 132 0
-28 -74 92 132 0
9 47 -104 132 0
-10 54 104 132 0
-16 -46 107 132 0
3 45 -98 -133 0
-14 -41 100 -133 0
16 56 82 133 0
-37 -68 -118 133 0
18 -52 -85 -134 0
-17 66 108 -134 0
9 -70 -110 -134 0
-38 -62 110 -134 0
-25 76 101 134 0
11 46 105 134 0
31 43 -113 134 0
-34 -46 -81 -135 0
-40 -60 83 -135 0
-11 -72 -84 -135 0
11 66 -87 -135 0
38 76 90 -135 0
36 -77 90 -135 0
32 -68 93 -135 0
-36 -63 -94 -135 0
4 -80 -99 -135 0
-26 -65 105 -135 0
-39 76 -113 -135 0
16 -50 113 -135 0
5 -65 -114 -135 0
33 65 -117 -135 0
-16 -63 -86 135 0
28 68 -89 135 0
24 -60 -97 135 0
-28 76 -111 135 0
-17 55 -115 135 0
24 -76 86 -136 0
18 -65 88 -136 0
8 63 -90 -136 0
-40 60 -116 -136 0
-39 -78 81 136 0
-39 54 -82 136 0
-21 73 85 136 0
37 -77 88 136 0
-26 77 -92 136 0
-22 58 -93 136 0
-2 -63 -97 136 0
21 -50 98 136 0
-33 -51 -105 136 0
23 65 -109 136 0
15 57 115 136 0
-28 -72 -82 -137 0
12 -67 -86 -137 0
5 -56 -95 -137 0
-34 -57 98 -137 0
-20 -48 -105 -137 0
22 -76 105 -137 0
34 -75 107 -137 0
8 58 115 -137 0
-19 72 -120 -137 0
-7 45 -82 137 0
-3 51 90 137 0
3 -67 -92 137 0
-29 59 -94 137 0
-33 -42 -111 137 0
-5 -78 -86 -138 0
3 -68 -95 -138 0
-32 78 98 -138 0
-29 70 -103 -138 0
27 47 -110 -138 0
-31 -42 -115 -138 0
-40 -52 86 138 0
14 64 -90 138 0
-9 50 91 138 0
-24 -53 96 138 0
19 51 -97 138 0
3 54 -98 138 0
6 64 105 138 0
-15 51 118 138 0
36 64 -87 -139 0
-26 -76 -91 -139 0
34 -64 103 -139 0
-38 55 110 -139 0
-38 75 110 -139 0
12 -59 -112 -139 0
-23 -58 -115 -139 0
37 75 83 139 0
23 74 94 139 0
-4 -45 98 139 0
-18 -50 99 139 0
-28 -62 104 139 0
-8 -63 110 139 0
-34 -69 110 139 0
38 54 -112 139 0
1 -75 114 139 0
5 63 99 -140 0
-35 -45 -105 -140 0
-21 60 -112 -140 0
15 44 112 -140 0
-12 -73 119 -140 0
1 -75 83 140 0
14 -53 -85 140 0
-20 -61 89 140 0
27 62 93 140 0
7 -63 96 140 0
-12 44 98 140 0
-32 59 -106 140 0
12 45 109 140 0
-14 74 111 140 0
-1 -66 -112 140 0
17 49 -119 140 0
-13 -61 120 140 0
30 -46 81 -141 0
18 58 -90 -141 0
-5 62 -94 -141 0
-23 75 101 -141 0
-9 58 109 -141 0
-30 46 -111 -141 0
-13 53 -115 -141 0
-26 -79 -117 -141 0
-26 -76 94 141 0
-9 43 -104 141 0
-13 49 105 141 0
36 49 -106 141 0
-25 -74 120 141 0
-25 -43 -92 -142 0
-40 74 -103 -142 0
-29 48 103 -142 0
-36 -58 95 142 0
35 -67 -96 142 0
-18 -54 98 142 0
-20 -76 -104 142 0
25 78 116 142 0
15 -46 82 -143 0
19 50 84 -143 0
-10 72 -91 -143 0
-25 67 -99 -143 0
-38 -45 -101 -143 0
18 -66 -109 -143 0
-4 52 -114 -143 0
40 -62 -84 143 0
17 -48 101 143 0
2 74 -105 143 0
34 -75 -105 143 0
10 -60 106 143 0
29 -49 -119 143 0
3 56 -96 -144 0
16 -69 98 -144 0
-22 -43 105 -144 0
40 76 -106 -144 0
12 69 106 -144 0
-6 -50 -107 -144 0
-3 -65 120 -144 0
-29 75 90 144 0
35 -77 91 144 0
-7 -71 94 144 0
-27 -66 103 144 0
6 47 111 144 0
-30 -49 114 144 0
-34 -58 -119 144 0
-14 78 -120 144 0
17 -79 86 -145 0
-32 -42 89 -145 0
-34 58 -108 -145 0
-29 68 -85 145 0
-4 56 -90 145 0
-23 -41 -113 145 0
32 -78 -115 145 0
-8 44 116 145 0
10 58 116 145 0
14 71 83 -146 0
24 52 85 -146 0
20 49 -87 -146 0
27 76 -87 -146 0
-39 -74 -100 -146 0
-6 66 -105 -146 0
-18 52 105 -146 0
-20 79 -114 -146 0
-29 75 -118 -146 0
32 -57 -99 146 0
12 -52 -103 146 0
27 68 -105 146 0
-40 -68 110 146 0
15 57 -111 146 0
-19 47 112 146 0
27 -80 113 146 0
15 -48 119 146 0
-26 49 81 -147 0
-2 -51 108 -147 0
29 -77 115 -147 0
-24 55 91 147 0
-26 -48 -94 147 0
40 72 98 147 0
36 -47 -102 147 0
-23 -53 104 147 0
30 41 -107 147 0
-20 44 110 147 0
-17 62 115 147 0
12 -48 -86 -148 0
11 -77 -97 -148 0
20 42 101 -148 0
-28 64 105 -148 0
-17 69 117 -148 0
-34 -78 117 -148 0
-21 47 83 148 0
3 -75 -85 148 0
-20 -65 -88 148 0
17 -73 90 148 0
1 -51 -101 148 0
-39 65 -102 148 0
24 70 -102 148 0
31 75 -105 148 0
-34 66 -113 148 0
-8 58 -120 148 0
1 64 -82 -149 0
8 80 83 -149 0
23 68 -89 -149 0
-24 63 101 -149 0
35 68 104 -149 0
25 54 106 -149 0
27 -60 83 149 0
-32 72 -87 149 0
3 -67 -96 149 0
24 64 -101 149 0
-9 65 -113 149 0
-32 -78 -81 -150 0
-2 -76 83 -150 0
23 -48 -90 -150 0
-27 65 -91 -150 0
-3 76 111 -150 0
28 49 -117 -150 0
-29 44 -84 150 0
33 53 -88 150 0
-33 58 -89 150 0
-31 -45 97 150 0
7 -72 -98 150 0
26 80 -108 150 0
-13 41 -112 150 0
-39 51 116 150 0
1 -61 -117 150 0
-29 80 -85 -151 0
36 41 89 -151 0
8 -60 -91 -151 0
29 -54 92 -151 0
32 77 92 -151 0
-24 55 96 -151 0
14 65 -99 -151 0
8 -59 -102 -151 0
-11 -62 -118 -151 0
-11 44 82 151 0
-6 43 -94 151 0
-38 -58 99 151 0
20 -71 109 151 0
39 50 110 151 0
26 -64 -112 151 0
11 -41 114 151 0
21 -79 83 -152 0
-8 41 89 -152 0
18 69 98 -152 0
-33 -73 99 -152 0
36 54 -111 -152 0
10 -43 111 -152 0
-15 -72 112 -152 0
-39 -44 114 -152 0
15 71 120 -152 0
37 -44 81 152 0
2 -75 -84 152 0
-11 67 84 152 0
2 -78 87 152 0
-35 -75 -88 152 0
20 66 -91 152 0
40 -50 91 152 0
-22 -64 91 152 0
-24 57 -93 152 0
-21 -51 96 152 0
8 -47 98 152 0
6 71 98 152 0
-8 -43 100 152 0
-17 63 104 152 0
-26 49 106 152 0
27 61 108 152 0
-29 44 -110 152 0
-38 -69 -105 -153 0
-1 -74 -108 -153 0
-36 -80 117 -153 0
-28 68 -87 153 0
15 46 109 153 0
18 49 114 153 0
2 -53 -115 153 0
-18 80 -115 153 0
29 -63 -116 153 0
22 49 116 153 0
33 51 83 -154 0
28 -72 96 -154 0
21 52 100 -154 0
-7 -58 -81 154 0
25 -55 -85 154 0
36 74 86 154 0
-38 62 89 154 0
-33 67 -103 154 0
21 48 -107 154 0
13 -70 114 154 0
-28 66 82 -155 0
11 -67 -83 -155 0
-28 -57 88 -155 0
5 -70 89 -155 0
18 62 91 -155 0
-33 -58 95 -155 0
-5 -51 99 -155 0
-19 -60 105 -155 0
-34 -58 116 -155 0
-37 -50 84 155 0
12 -68 87 155 0
40 59 93 155 0
-11 78 95 155 0
-10 47 103 155 0
-10 -72 -107 155 0
40 -53 -113 155 0
-8 -80 116 155 0
-15 62 -85 -156 0
4 71 -86 -156 0
-39 64 86 -156 0
-5 -51 -95 -156 0
-19 69 -95 -156 0
3 42 96 -156 0
28 -69 -104 -156 0
-39 77 -104 -156 0
-20 50 -117 -156 0
-1 -62 -118 -156 0
-21 54 119 -156 0
7 78 -95 156 0
-21 64 -100 156 0
-37 -71 113 156 0
-10 44 -114 156 0
-7 45 -114 156 0
26 66 -96 -157 0
-28 -76 -104 -157 0
-36 65 -110 -157 0
30 56 111 -157 0
2 -75 -117 -157 0
20 -54 -119 -157 0
33 -62 -120 -157 0
26 -69 -83 157 0
-40 -54 86 157 0
-36 -76 -119 157 0
31 41 110 -158 0
-34 -41 -82 158 0
6 -77 -82 158 0
40 -42 -83 158 0
20 70 87 158 0
-39 58 96 158 0
-28 -60 -97 158 0
-12 44 -99 158 0
9 -62 102 158 0
-37 -74 -104 158 0
-11 59 -107 158 0
-1 -76 110 158 0
15 -43 -119 158 0
-11 -63 -81 -159 0
-15 -72 82 -159 0
-16 -42 85 -159 0
11 48 -94 -159 0
4 -58 97 -159 0
12 -43 -102 -159 0
-40 72 108 -159 0
34 77 -109 -159 0
-8 69 112 -159 0
37 76 -118 -159 0
-11 -43 106 159 0
-1 -43 -113 159 0
2 58 -117 159 0
39 -79 84 -160 0
-35 -49 88 -160 0
-35 -78 -89 -160 0
-40 48 -90 -160 0
29 -51 -91 -160 0
26 71 94 -160 0
-24 -44 110 -160 0
-7 -57 111 -160 0
-21 62 -116 -160 0
23 48 -88 160 0
-15 63 91 160 0
-35 -71 -92 160 0
-3 50 99 160 0
-7 -43 -104 160 0
38 -57 109 160 0
31 -63 111 160 0
-4 64 -114 160 0
